
%FILE DATA:	Soccer Computational Problem for MiniZinc Models	%
%AUTHOR:	Jack Wall	%
%CONTACT:  	116397063@umail.ucc.ie			%
%LAST UPDATE:	02/24/2020, 18:51:12						%
%DESCRIPTION: 	45 games played with 27 games left				%


n=9; %number of teams

%Games to play
games=[|1,5|2,6|3,1|7,4|2,8|7,8|7,9|2,4|4,2|2,5|7,3|5,1|2,7|6,2|8,2|1,6|5,7|5,3|1,4|5,2|5,4|4,8|3,2|6,3|8,5|3,6|6,5|];

%Initial points
iPoints=[9,11,15,6,9,19,18,12,27];

%POSITION CONSTRAINTS
% [|teamID, operator, position|...]
% operators index:
%  1 for =  operator
%  2 for >  operator
%  3 for >= operator
%  4 for <  operator
%  5 for <= operator
positionConstraints=[|9,3,1|7,1,2|6,4,4|3,1,4|];